Cost: 1393
0-34-53-31-62-24-25-26-21-35-48-22-59-63-29-32-54-28-61-37-0
0-38-2-3-15-64-18-17-13-46-45-42-43-44-10-60-36-8-7-47-39-5-6-4-56-0
Cost: 1393
0-38-2-3-64-18-17-15-13-46-45-42-43-44-11-60-36-8-7-47-39-5-6-4-56-0
0-34-53-31-62-24-26-21-48-35-22-59-25-63-29-32-54-28-61-37-0
Cost: 1393
0-34-53-31-62-24-25-26-21-35-48-22-59-63-29-32-54-28-61-37-0
0-38-2-3-15-64-18-17-13-46-45-42-43-44-10-60-36-8-7-47-39-5-6-4-56-0
Cost: 1393
0-53-31-62-24-25-26-21-35-48-22-59-63-29-32-54-28-61-1-37-0
0-38-3-64-18-17-15-13-46-42-43-44-45-60-10-36-8-7-47-39-5-6-4-34-56-0
Cost: 1393
0-38-3-64-18-17-15-13-46-42-43-44-45-60-10-36-8-7-47-39-5-6-4-34-56-0
0-53-31-62-51-24-26-21-35-22-59-25-63-29-32-54-28-61-1-37-0
Cost: 1393
0-38-2-3-64-18-17-15-13-46-45-42-43-44-60-10-36-8-7-47-39-5-6-4-56-0
0-34-53-31-62-24-26-21-35-49-22-59-25-63-29-32-54-28-61-37-0
Cost: 1393
0-38-2-3-64-18-17-15-13-46-45-42-43-44-60-10-36-8-7-47-39-5-6-4-56-0
0-34-53-31-62-24-25-26-21-35-49-22-59-63-29-32-54-28-61-37-0
Cost: 1393
0-34-53-31-62-52-24-25-26-21-35-22-59-63-29-32-54-28-61-37-0
0-38-2-3-64-15-18-17-13-46-42-43-44-11-45-60-36-8-7-47-39-5-6-4-56-0
Cost: 1393
0-38-2-3-64-18-17-15-13-46-45-42-43-44-60-10-36-8-7-47-39-5-6-4-56-0
0-34-53-31-62-24-25-26-21-35-49-22-59-63-29-32-54-28-61-37-0
Cost: 1393
0-38-3-64-18-17-15-13-46-42-43-44-11-45-60-36-8-7-47-39-5-6-4-34-56-0
0-53-31-62-24-26-21-48-35-22-59-25-63-29-32-54-28-61-1-37-0
Cost: 1393
0-38-3-64-18-17-15-13-46-42-43-44-11-45-60-36-8-7-47-39-5-6-4-34-56-0
0-53-31-62-24-25-26-21-48-35-22-59-63-29-32-54-28-61-1-37-0
Cost: 1393
0-38-3-64-18-17-15-13-46-45-42-43-44-11-60-36-8-7-47-39-5-6-4-34-56-0
0-53-31-62-51-24-25-26-21-35-22-59-63-29-32-54-28-61-1-37-0
Cost: 1393
0-34-53-31-62-24-25-26-21-48-35-22-59-63-29-32-54-28-61-1-37-0
0-38-3-64-18-17-15-13-46-45-42-43-44-11-60-36-8-7-47-39-5-6-4-56-0
Cost: 1393
0-53-31-62-24-25-26-21-35-49-22-59-63-29-32-54-28-61-1-37-0
0-38-3-64-18-17-15-13-46-42-43-44-11-45-60-36-8-7-47-39-5-6-4-34-56-0
Cost: 1393
0-38-3-64-18-17-15-13-46-42-43-44-11-45-60-36-8-7-47-39-5-6-4-34-56-0
0-53-31-62-24-25-26-21-48-35-22-59-63-29-32-54-28-61-1-37-0
Cost: 1393
0-38-3-64-18-17-15-13-46-42-43-44-11-45-60-36-8-7-47-39-5-6-4-34-56-0
0-53-31-62-24-25-26-21-48-35-22-59-63-29-32-54-28-61-1-37-0
Cost: 1393
0-38-2-3-64-15-18-17-13-46-45-42-43-44-60-10-36-8-7-47-39-5-6-4-56-0
0-34-53-31-62-51-24-26-21-35-22-59-25-63-29-32-54-28-61-37-0
Cost: 1393
0-38-3-64-18-17-15-13-46-42-43-44-11-45-60-36-8-7-47-39-5-6-4-34-56-0
0-53-31-62-24-25-26-21-48-35-22-59-63-29-32-54-28-61-1-37-0
Cost: 1393
0-38-3-64-18-17-15-13-46-42-43-44-11-45-60-36-8-7-47-39-5-6-4-34-56-0
0-53-31-62-24-25-26-21-48-35-22-59-63-29-32-54-28-61-1-37-0
Cost: 1393
0-38-3-64-15-18-17-13-46-45-42-43-44-11-60-36-8-7-47-39-5-6-4-34-56-0
0-53-31-62-24-25-26-21-35-49-22-59-63-29-32-54-28-61-1-37-0
Cost: 1393
0-38-2-3-64-18-17-15-13-46-45-42-43-44-11-60-36-8-7-47-39-5-6-4-56-0
0-34-53-31-62-24-25-26-21-35-48-22-59-63-29-32-54-28-61-37-0
Cost: 1393
0-38-2-3-64-18-17-15-13-46-45-42-43-44-11-60-36-8-7-47-39-5-6-4-56-0
0-34-53-31-62-24-25-26-21-35-48-22-59-63-29-32-54-28-61-37-0
Cost: 1393
0-53-31-62-24-25-26-21-48-35-22-59-63-29-32-54-28-61-1-37-0
0-38-3-64-18-17-15-13-46-45-42-43-44-11-60-36-8-7-47-39-5-6-4-34-56-0
Cost: 1393
0-53-31-62-24-25-26-21-48-35-22-59-63-29-32-54-28-61-1-37-0
0-38-3-64-18-17-15-13-46-45-42-43-44-11-60-36-8-7-47-39-5-6-4-34-56-0
Cost: 1393
0-53-31-62-24-26-21-35-48-22-59-25-63-29-32-54-28-61-1-37-0
0-38-3-64-18-17-15-13-46-45-42-43-44-60-10-36-8-7-47-39-5-6-4-34-56-0
Cost: 1393
0-53-31-62-24-25-26-21-48-35-22-59-63-29-32-54-28-61-1-37-0
0-38-3-64-18-17-15-13-46-45-42-43-44-11-60-36-8-7-47-39-5-6-4-34-56-0
Cost: 1393
0-38-3-64-15-18-17-13-46-45-42-43-44-11-60-36-8-7-47-39-5-6-4-34-56-0
0-53-31-62-24-25-26-21-35-49-22-59-63-29-32-54-28-61-1-37-0
Cost: 1393
0-38-3-64-15-18-17-13-46-42-43-44-45-10-60-36-8-7-47-39-5-6-4-34-56-0
0-53-31-62-24-26-21-48-35-22-59-25-63-29-32-54-28-61-1-37-0
Cost: 1393
0-38-3-64-15-18-17-13-46-42-43-44-45-10-60-36-8-7-47-39-5-6-4-34-56-0
0-53-31-62-24-26-21-48-35-22-59-25-63-29-32-54-28-61-1-37-0
Cost: 1393
0-38-2-3-64-18-17-15-13-46-45-42-43-44-10-60-36-8-7-47-39-5-6-4-56-0
0-34-53-31-62-24-25-26-21-35-49-22-59-63-29-32-54-28-61-37-0
Cost: 1393
0-38-3-64-18-17-15-13-46-42-43-44-11-45-60-36-8-7-47-39-5-6-4-56-0
0-34-53-31-62-24-25-26-21-35-48-22-59-63-29-32-54-28-61-1-37-0
Cost: 1404
0-38-3-64-18-17-15-13-46-45-42-43-44-10-60-36-8-40-7-47-5-6-4-56-0
0-34-53-31-62-52-24-26-21-35-22-59-25-63-29-32-54-28-61-1-37-0
Cost: 1393
0-38-2-3-64-18-17-15-13-46-45-42-43-44-10-60-36-8-7-47-39-5-6-4-56-0
0-34-53-31-62-24-26-21-35-48-22-59-25-63-29-32-54-28-61-37-0
Cost: 1393
0-34-53-31-62-24-25-26-21-35-48-22-59-63-29-32-54-28-61-37-0
0-38-2-3-64-15-18-17-13-46-42-43-44-45-60-10-36-8-7-47-39-5-6-4-56-0
